benchmark/results/graph__10-1000-0.10-03_6/graph__10-1000-0.10-03_6_QuintonOs_Benders_primal_sub.lp
\ This file has been generated by DOcplex
\ ENCODING=ISO-8859-1
\Problem name: Quinton Bounded Benders_primal_sub

Maximize
 obj: tau
Subject To
 c1: tau <= 0.001782531194
 c2: y_a0_proc_0 + y_a0_proc_1 - tau = 0
 c3: y_a0_proc_0 <= 1
 c4: y_a0_proc_1 <= 0
 c5: tau <= 0.001400560224
 c6: y_a1_proc_0 + y_a1_proc_1 + y_a1_proc_2 - tau = 0
 c7: y_a1_proc_0 <= 1
 c8: y_a1_proc_1 <= 0
 c9: y_a1_proc_2 <= 0
 c10: tau <= 0.001620745543
 c11: y_a2_proc_0 + y_a2_proc_1 + y_a2_proc_2 - tau = 0
 c12: y_a2_proc_0 <= 0
 c13: y_a2_proc_1 <= 0
 c14: y_a2_proc_2 <= 1
 c15: tau <= 0.001369863014
 c16: y_a3_proc_0 - tau = 0
 c17: y_a3_proc_0 <= 1
 c18: tau <= 0.000960614793
 c19: y_a4_proc_1 + y_a4_proc_2 - tau = 0
 c20: y_a4_proc_1 <= 0
 c21: y_a4_proc_2 <= 1
 c22: tau <= 0.000985221675
 c23: y_a5_proc_0 + y_a5_proc_1 + y_a5_proc_2 - tau = 0
 c24: y_a5_proc_0 <= 0
 c25: y_a5_proc_1 <= 1
 c26: y_a5_proc_2 <= 0
 c27: tau <= 0.005000000000
 c28: y_a6_proc_0 + y_a6_proc_2 - tau = 0
 c29: y_a6_proc_0 <= 0
 c30: y_a6_proc_2 <= 1
 c31: tau <= 0.001026694045
 c32: y_a7_proc_0 + y_a7_proc_1 + y_a7_proc_2 - tau = 0
 c33: y_a7_proc_0 <= 0
 c34: y_a7_proc_1 <= 0
 c35: y_a7_proc_2 <= 1
 c36: tau <= 0.001170960187
 c37: y_a8_proc_0 + y_a8_proc_1 - tau = 0
 c38: y_a8_proc_0 <= 0
 c39: y_a8_proc_1 <= 1
 c40: tau <= 0.001203369434
 c41: y_a9_proc_0 + y_a9_proc_1 + y_a9_proc_2 - tau = 0
 c42: y_a9_proc_0 <= 0
 c43: y_a9_proc_1 <= 1
 c44: y_a9_proc_2 <= 0
 c45: u_a0 - u_a1 - 714 y_a1_proc_0 - 981 y_a1_proc_1 - 788 y_a1_proc_2 >= 0
 c46: u_a2 - u_a1 - 714 y_a1_proc_0 - 981 y_a1_proc_1 - 788 y_a1_proc_2 >= 0
 c47: u_a1 - u_a3 - 730 y_a3_proc_0 >= -1
 c48: u_a1 - u_a4 - 1218 y_a4_proc_1 - 1041 y_a4_proc_2 >= 0
 c49: u_a5 - u_a3 - 730 y_a3_proc_0 >= 0
 c50: u_a6 - u_a4 - 1218 y_a4_proc_1 - 1041 y_a4_proc_2 >= 0
 c51: u_a7 - u_a6 - 525 y_a6_proc_0 - 200 y_a6_proc_2 >= -1
 c52: u_a4 - u_a8 - 1160 y_a8_proc_0 - 854 y_a8_proc_1 >= 0
 c53: u_a0 - u_a9 - 1290 y_a9_proc_0 - 831 y_a9_proc_1 - 1073 y_a9_proc_2 >= 0
 c54: u_a9 - u_a8 - 1160 y_a8_proc_0 - 854 y_a8_proc_1 >= 0
 c55: u_a8 - u_a7 - 684 y_a7_proc_0 - 1134 y_a7_proc_1 - 974 y_a7_proc_2 >= 0
 c56: u_a4 - u_a3 - 730 y_a3_proc_0 >= 0
 c57: u_a8 - u_a6 - 525 y_a6_proc_0 - 200 y_a6_proc_2 >= -1
 c58: u_a9 - u_a0 - 561 y_a0_proc_0 - 754 y_a0_proc_1 >= -1
 c59: u_a9 - u_a2 - 1297 y_a2_proc_0 - 728 y_a2_proc_1 - 617 y_a2_proc_2 >= -1
 c60: u_a4 - u_a6 - 525 y_a6_proc_0 - 200 y_a6_proc_2 >= -1
 c61: u_a3 - u_a5 - 1068 y_a5_proc_0 - 1015 y_a5_proc_1 - 1174 y_a5_proc_2 >= 
      -1
 c62: u_a3 - u_a0 - 561 y_a0_proc_0 - 754 y_a0_proc_1 >= -1
 c63: u_a1 - u_a8 - 1160 y_a8_proc_0 - 854 y_a8_proc_1 >= 0
 c64: u_a6 - u_a2 - 1297 y_a2_proc_0 - 728 y_a2_proc_1 - 617 y_a2_proc_2 >= -1
 c65: u_a1 - u_a0 - 561 y_a0_proc_0 >= -1
 c66: u_a1 - u_a0 - 754 y_a0_proc_1 >= -2595
 c67: u_a0 - u_a1 - 714 y_a1_proc_0 >= 0
 c68: u_a0 - u_a1 - 981 y_a1_proc_1 >= -2594
 c69: u_a2 - u_a0 - 561 y_a0_proc_0 >= -1310
 c70: u_a2 - u_a0 - 754 y_a0_proc_1 >= -2607
 c71: u_a0 - u_a2 - 1297 y_a2_proc_0 >= -1285
 c72: u_a0 - u_a2 - 728 y_a2_proc_1 >= -2582
 c73: u_a3 - u_a0 - 561 y_a0_proc_0 >= -1
 c74: u_a0 - u_a3 - 730 y_a3_proc_0 >= 0
 c75: u_a4 - u_a0 - 754 y_a0_proc_1 >= -2607
 c76: u_a0 - u_a4 - 1218 y_a4_proc_1 >= -2582
 c77: u_a5 - u_a0 - 561 y_a0_proc_0 >= -1310
 c78: u_a5 - u_a0 - 754 y_a0_proc_1 >= -1310
 c79: u_a0 - u_a5 - 1068 y_a5_proc_0 >= -1285
 c80: u_a0 - u_a5 - 1015 y_a5_proc_1 >= -1285
 c81: u_a6 - u_a0 - 561 y_a0_proc_0 >= -1310
 c82: u_a0 - u_a6 - 525 y_a6_proc_0 >= -1285
 c83: u_a7 - u_a0 - 561 y_a0_proc_0 >= -1285
 c84: u_a7 - u_a0 - 754 y_a0_proc_1 >= -2582
 c85: u_a0 - u_a7 - 684 y_a7_proc_0 >= -1310
 c86: u_a0 - u_a7 - 1134 y_a7_proc_1 >= -2607
 c87: u_a8 - u_a0 - 561 y_a0_proc_0 >= -1285
 c88: u_a8 - u_a0 - 754 y_a0_proc_1 >= -1285
 c89: u_a0 - u_a8 - 1160 y_a8_proc_0 >= -1310
 c90: u_a0 - u_a8 - 854 y_a8_proc_1 >= -1310
 c91: u_a9 - u_a0 - 561 y_a0_proc_0 >= -1310
 c92: u_a9 - u_a0 - 754 y_a0_proc_1 >= -1310
 c93: u_a0 - u_a9 - 1290 y_a9_proc_0 >= -1285
 c94: u_a0 - u_a9 - 831 y_a9_proc_1 >= -1285
 c95: u_a2 - u_a1 - 788 y_a1_proc_2 >= -1310
 c96: u_a2 - u_a1 - 714 y_a1_proc_0 >= -1310
 c97: u_a2 - u_a1 - 981 y_a1_proc_1 >= -2607
 c98: u_a1 - u_a2 - 617 y_a2_proc_2 >= -1285
 c99: u_a1 - u_a2 - 1297 y_a2_proc_0 >= -1285
 c100: u_a1 - u_a2 - 728 y_a2_proc_1 >= -2582
 c101: u_a3 - u_a1 - 714 y_a1_proc_0 >= -1
 c102: u_a1 - u_a3 - 730 y_a3_proc_0 >= 0
 c103: u_a4 - u_a1 - 788 y_a1_proc_2 >= -1310
 c104: u_a4 - u_a1 - 981 y_a1_proc_1 >= -2607
 c105: u_a1 - u_a4 - 1041 y_a4_proc_2 >= -1285
 c106: u_a1 - u_a4 - 1218 y_a4_proc_1 >= -2582
 c107: u_a5 - u_a1 - 788 y_a1_proc_2 >= -2607
 c108: u_a5 - u_a1 - 714 y_a1_proc_0 >= -1310
 c109: u_a5 - u_a1 - 981 y_a1_proc_1 >= -1310
 c110: u_a1 - u_a5 - 1174 y_a5_proc_2 >= -2582
 c111: u_a1 - u_a5 - 1068 y_a5_proc_0 >= -1285
 c112: u_a1 - u_a5 - 1015 y_a5_proc_1 >= -1285
 c113: u_a6 - u_a1 - 788 y_a1_proc_2 >= -1310
 c114: u_a6 - u_a1 - 714 y_a1_proc_0 >= -1310
 c115: u_a1 - u_a6 - 200 y_a6_proc_2 >= -1285
 c116: u_a1 - u_a6 - 525 y_a6_proc_0 >= -1285
 c117: u_a7 - u_a1 - 788 y_a1_proc_2 >= -1285
 c118: u_a7 - u_a1 - 714 y_a1_proc_0 >= -1285
 c119: u_a7 - u_a1 - 981 y_a1_proc_1 >= -2582
 c120: u_a1 - u_a7 - 974 y_a7_proc_2 >= -1310
 c121: u_a1 - u_a7 - 684 y_a7_proc_0 >= -1310
 c122: u_a1 - u_a7 - 1134 y_a7_proc_1 >= -2607
 c123: u_a8 - u_a1 - 714 y_a1_proc_0 >= -1310
 c124: u_a8 - u_a1 - 981 y_a1_proc_1 >= -1310
 c125: u_a1 - u_a8 - 1160 y_a8_proc_0 >= -1285
 c126: u_a1 - u_a8 - 854 y_a8_proc_1 >= -1285
 c127: u_a9 - u_a1 - 788 y_a1_proc_2 >= -2582
 c128: u_a9 - u_a1 - 714 y_a1_proc_0 >= -1285
 c129: u_a9 - u_a1 - 981 y_a1_proc_1 >= -1285
 c130: u_a1 - u_a9 - 1073 y_a9_proc_2 >= -2607
 c131: u_a1 - u_a9 - 1290 y_a9_proc_0 >= -1310
 c132: u_a1 - u_a9 - 831 y_a9_proc_1 >= -1310
 c133: u_a3 - u_a2 - 1297 y_a2_proc_0 >= -1285
 c134: u_a2 - u_a3 - 730 y_a3_proc_0 >= -1310
 c135: u_a4 - u_a2 - 617 y_a2_proc_2 >= -1
 c136: u_a4 - u_a2 - 728 y_a2_proc_1 >= -2595
 c137: u_a2 - u_a4 - 1041 y_a4_proc_2 >= 0
 c138: u_a2 - u_a4 - 1218 y_a4_proc_1 >= -2594
 c139: u_a5 - u_a2 - 617 y_a2_proc_2 >= -1310
 c140: u_a5 - u_a2 - 1297 y_a2_proc_0 >= -2607
 c141: u_a5 - u_a2 - 728 y_a2_proc_1 >= -1310
 c142: u_a2 - u_a5 - 1174 y_a5_proc_2 >= -1285
 c143: u_a2 - u_a5 - 1068 y_a5_proc_0 >= -2582
 c144: u_a2 - u_a5 - 1015 y_a5_proc_1 >= -1285
 c145: u_a6 - u_a2 - 617 y_a2_proc_2 >= -1
 c146: u_a6 - u_a2 - 1297 y_a2_proc_0 >= -2595
 c147: u_a2 - u_a6 - 200 y_a6_proc_2 >= 0
 c148: u_a2 - u_a6 - 525 y_a6_proc_0 >= -2594
 c149: u_a7 - u_a2 - 617 y_a2_proc_2 >= -2
 c150: u_a7 - u_a2 - 1297 y_a2_proc_0 >= -2596
 c151: u_a7 - u_a2 - 728 y_a2_proc_1 >= -2596
 c152: u_a2 - u_a7 - 974 y_a7_proc_2 >= 1
 c153: u_a2 - u_a7 - 684 y_a7_proc_0 >= -2593
 c154: u_a2 - u_a7 - 1134 y_a7_proc_1 >= -2593
 c155: u_a8 - u_a2 - 1297 y_a2_proc_0 >= -2607
 c156: u_a8 - u_a2 - 728 y_a2_proc_1 >= -1310
 c157: u_a2 - u_a8 - 1160 y_a8_proc_0 >= -2582
 c158: u_a2 - u_a8 - 854 y_a8_proc_1 >= -1285
 c159: u_a9 - u_a2 - 617 y_a2_proc_2 >= -1310
 c160: u_a9 - u_a2 - 1297 y_a2_proc_0 >= -2607
 c161: u_a9 - u_a2 - 728 y_a2_proc_1 >= -1310
 c162: u_a2 - u_a9 - 1073 y_a9_proc_2 >= -1285
 c163: u_a2 - u_a9 - 1290 y_a9_proc_0 >= -2582
 c164: u_a2 - u_a9 - 831 y_a9_proc_1 >= -1285
 c165: u_a5 - u_a3 - 730 y_a3_proc_0 >= -1310
 c166: u_a3 - u_a5 - 1068 y_a5_proc_0 >= -1285
 c167: u_a6 - u_a3 - 730 y_a3_proc_0 >= -1310
 c168: u_a3 - u_a6 - 525 y_a6_proc_0 >= -1285
 c169: u_a7 - u_a3 - 730 y_a3_proc_0 >= -1285
 c170: u_a3 - u_a7 - 684 y_a7_proc_0 >= -1310
 c171: u_a8 - u_a3 - 730 y_a3_proc_0 >= -1310
 c172: u_a3 - u_a8 - 1160 y_a8_proc_0 >= -1285
 c173: u_a9 - u_a3 - 730 y_a3_proc_0 >= -1310
 c174: u_a3 - u_a9 - 1290 y_a9_proc_0 >= -1285
 c175: u_a5 - u_a4 - 1041 y_a4_proc_2 >= -1310
 c176: u_a5 - u_a4 - 1218 y_a4_proc_1 >= -1310
 c177: u_a4 - u_a5 - 1174 y_a5_proc_2 >= -1285
 c178: u_a4 - u_a5 - 1015 y_a5_proc_1 >= -1285
 c179: u_a6 - u_a4 - 1041 y_a4_proc_2 >= 0
 c180: u_a4 - u_a6 - 200 y_a6_proc_2 >= -1
 c181: u_a7 - u_a4 - 1041 y_a4_proc_2 >= -1
 c182: u_a7 - u_a4 - 1218 y_a4_proc_1 >= -2595
 c183: u_a4 - u_a7 - 974 y_a7_proc_2 >= 0
 c184: u_a4 - u_a7 - 1134 y_a7_proc_1 >= -2594
 c185: u_a8 - u_a4 - 1218 y_a4_proc_1 >= -1310
 c186: u_a4 - u_a8 - 854 y_a8_proc_1 >= -1285
 c187: u_a9 - u_a4 - 1041 y_a4_proc_2 >= -1310
 c188: u_a9 - u_a4 - 1218 y_a4_proc_1 >= -1310
 c189: u_a4 - u_a9 - 1073 y_a9_proc_2 >= -1285
 c190: u_a4 - u_a9 - 831 y_a9_proc_1 >= -1285
 c191: u_a6 - u_a5 - 1174 y_a5_proc_2 >= -1310
 c192: u_a6 - u_a5 - 1068 y_a5_proc_0 >= -2607
 c193: u_a5 - u_a6 - 200 y_a6_proc_2 >= -1285
 c194: u_a5 - u_a6 - 525 y_a6_proc_0 >= -2582
 c195: u_a7 - u_a5 - 1174 y_a5_proc_2 >= -1310
 c196: u_a7 - u_a5 - 1068 y_a5_proc_0 >= -2607
 c197: u_a7 - u_a5 - 1015 y_a5_proc_1 >= -1310
 c198: u_a5 - u_a7 - 974 y_a7_proc_2 >= -1285
 c199: u_a5 - u_a7 - 684 y_a7_proc_0 >= -2582
 c200: u_a5 - u_a7 - 1134 y_a7_proc_1 >= -1285
 c201: u_a8 - u_a5 - 1068 y_a5_proc_0 >= -2595
 c202: u_a8 - u_a5 - 1015 y_a5_proc_1 >= -1
 c203: u_a5 - u_a8 - 1160 y_a8_proc_0 >= -2594
 c204: u_a5 - u_a8 - 854 y_a8_proc_1 >= 0
 c205: u_a9 - u_a5 - 1174 y_a5_proc_2 >= -2595
 c206: u_a9 - u_a5 - 1068 y_a5_proc_0 >= -2595
 c207: u_a9 - u_a5 - 1015 y_a5_proc_1 >= -1
 c208: u_a5 - u_a9 - 1073 y_a9_proc_2 >= -2594
 c209: u_a5 - u_a9 - 1290 y_a9_proc_0 >= -2594
 c210: u_a5 - u_a9 - 831 y_a9_proc_1 >= 0
 c211: u_a7 - u_a6 - 200 y_a6_proc_2 >= -1
 c212: u_a7 - u_a6 - 525 y_a6_proc_0 >= -2595
 c213: u_a6 - u_a7 - 974 y_a7_proc_2 >= 0
 c214: u_a6 - u_a7 - 684 y_a7_proc_0 >= -2594
 c215: u_a8 - u_a6 - 525 y_a6_proc_0 >= -2582
 c216: u_a6 - u_a8 - 1160 y_a8_proc_0 >= -2607
 c217: u_a9 - u_a6 - 200 y_a6_proc_2 >= -1310
 c218: u_a9 - u_a6 - 525 y_a6_proc_0 >= -2607
 c219: u_a6 - u_a9 - 1073 y_a9_proc_2 >= -1285
 c220: u_a6 - u_a9 - 1290 y_a9_proc_0 >= -2582
 c221: u_a8 - u_a7 - 684 y_a7_proc_0 >= -2607
 c222: u_a8 - u_a7 - 1134 y_a7_proc_1 >= -1310
 c223: u_a7 - u_a8 - 1160 y_a8_proc_0 >= -2582
 c224: u_a7 - u_a8 - 854 y_a8_proc_1 >= -1285
 c225: u_a9 - u_a7 - 974 y_a7_proc_2 >= -1310
 c226: u_a9 - u_a7 - 684 y_a7_proc_0 >= -2607
 c227: u_a9 - u_a7 - 1134 y_a7_proc_1 >= -1310
 c228: u_a7 - u_a9 - 1073 y_a9_proc_2 >= -1285
 c229: u_a7 - u_a9 - 1290 y_a9_proc_0 >= -2582
 c230: u_a7 - u_a9 - 831 y_a9_proc_1 >= -1285
 c231: u_a9 - u_a8 - 1160 y_a8_proc_0 >= -2594
 c232: u_a9 - u_a8 - 854 y_a8_proc_1 >= 0
 c233: u_a8 - u_a9 - 1290 y_a9_proc_0 >= -2595
 c234: u_a8 - u_a9 - 831 y_a9_proc_1 >= -1

Bounds
End
