benchmark/results/graph__10-1000-0.10-03_6/graph__10-1000-0.10-03_6_QuintonOs_Benders_primal_sub.txt
solution for: Quinton Bounded Benders_primal_sub
objective: 0.000325839
status: OPTIMAL_SOLUTION(2)
u_a0=1.175
u_a1=0.942
u_a2=1.395
u_a3=0.358
u_a4=0.596
u_a5=0.866
u_a6=0.935
u_a8=0.317
u_a9=0.596
tau=0.000
y_a0_proc_0=0.000
y_a1_proc_0=0.000
y_a2_proc_2=0.000
y_a3_proc_0=0.000
y_a4_proc_2=0.000
y_a5_proc_1=0.000
y_a6_proc_2=0.000
y_a7_proc_2=0.000
y_a8_proc_1=0.000
y_a9_proc_1=0.000
